\ SCIP STATISTICS
\   Problem name     : MPSXNAME
\   Variables        : 4 (0 binary, 0 integer, 0 implicit integer, 4 continuous)
\   Constraints      : 3
Minimize
 Obj: +25 X0
Subject to
 X7: +8 X0 +4 X1 +7 X2 +7 X4 = +25200
 X8: +28 X0 +39 X1 -63 X2 -13 X4 <= +3200
 X12: -8 X0 +21 X1 -7 X2 +43 X4 <= +4800
Bounds
 0 <= X0 <= 1000
 0 <= X1 <= 3000
 0 <= X2 <= 2000
 0 <= X4 <= 2600
End
